c Generated map
c Size: 15 * 15, weights in range: 1 to 10, walls: False, with ratio 0.0
c dim 4 of 4
c
p sp 225 420
c graph contains 225 nodes and 420 arcs
c
a 1 16 7
a 16 1 7
a 1 2 9
a 2 1 9
a 2 17 4
a 17 2 4
a 2 3 10
a 3 2 10
a 3 18 1
a 18 3 1
a 3 4 5
a 4 3 5
a 4 19 2
a 19 4 2
a 4 5 9
a 5 4 9
a 5 20 9
a 20 5 9
a 5 6 7
a 6 5 7
a 6 21 9
a 21 6 9
a 6 7 10
a 7 6 10
a 7 22 6
a 22 7 6
a 7 8 4
a 8 7 4
a 8 23 7
a 23 8 7
a 8 9 8
a 9 8 8
a 9 24 4
a 24 9 4
a 9 10 10
a 10 9 10
a 10 25 3
a 25 10 3
a 10 11 6
a 11 10 6
a 11 26 3
a 26 11 3
a 11 12 4
a 12 11 4
a 12 27 6
a 27 12 6
a 12 13 9
a 13 12 9
a 13 28 3
a 28 13 3
a 13 14 5
a 14 13 5
a 14 29 5
a 29 14 5
a 14 15 4
a 15 14 4
a 15 30 1
a 30 15 1
a 16 31 2
a 31 16 2
a 16 17 8
a 17 16 8
a 17 32 3
a 32 17 3
a 17 18 6
a 18 17 6
a 18 33 9
a 33 18 9
a 18 19 5
a 19 18 5
a 19 34 2
a 34 19 2
a 19 20 5
a 20 19 5
a 20 35 5
a 35 20 5
a 20 21 10
a 21 20 10
a 21 36 7
a 36 21 7
a 21 22 9
a 22 21 9
a 22 37 7
a 37 22 7
a 22 23 1
a 23 22 1
a 23 38 4
a 38 23 4
a 23 24 5
a 24 23 5
a 24 39 2
a 39 24 2
a 24 25 2
a 25 24 2
a 25 40 2
a 40 25 2
a 25 26 6
a 26 25 6
a 26 41 6
a 41 26 6
a 26 27 9
a 27 26 9
a 27 42 9
a 42 27 9
a 27 28 3
a 28 27 3
a 28 43 5
a 43 28 5
a 28 29 4
a 29 28 4
a 29 44 5
a 44 29 5
a 29 30 1
a 30 29 1
a 30 45 9
a 45 30 9
a 31 46 6
a 46 31 6
a 31 32 6
a 32 31 6
a 32 47 6
a 47 32 6
a 32 33 8
a 33 32 8
a 33 48 2
a 48 33 2
a 33 34 7
a 34 33 7
a 34 49 9
a 49 34 9
a 34 35 3
a 35 34 3
a 35 50 8
a 50 35 8
a 35 36 7
a 36 35 7
a 36 51 9
a 51 36 9
a 36 37 5
a 37 36 5
a 37 52 3
a 52 37 3
a 37 38 1
a 38 37 1
a 38 53 7
a 53 38 7
a 38 39 1
a 39 38 1
a 39 54 2
a 54 39 2
a 39 40 10
a 40 39 10
a 40 55 4
a 55 40 4
a 40 41 3
a 41 40 3
a 41 56 10
a 56 41 10
a 41 42 2
a 42 41 2
a 42 57 7
a 57 42 7
a 42 43 9
a 43 42 9
a 43 58 3
a 58 43 3
a 43 44 3
a 44 43 3
a 44 59 6
a 59 44 6
a 44 45 1
a 45 44 1
a 45 60 8
a 60 45 8
a 46 61 3
a 61 46 3
a 46 47 10
a 47 46 10
a 47 62 1
a 62 47 1
a 47 48 10
a 48 47 10
a 48 63 10
a 63 48 10
a 48 49 9
a 49 48 9
a 49 64 10
a 64 49 10
a 49 50 10
a 50 49 10
a 50 65 4
a 65 50 4
a 50 51 3
a 51 50 3
a 51 66 9
a 66 51 9
a 51 52 2
a 52 51 2
a 52 67 4
a 67 52 4
a 52 53 10
a 53 52 10
a 53 68 1
a 68 53 1
a 53 54 1
a 54 53 1
a 54 69 9
a 69 54 9
a 54 55 8
a 55 54 8
a 55 70 4
a 70 55 4
a 55 56 8
a 56 55 8
a 56 71 4
a 71 56 4
a 56 57 10
a 57 56 10
a 57 72 6
a 72 57 6
a 57 58 8
a 58 57 8
a 58 73 4
a 73 58 4
a 58 59 1
a 59 58 1
a 59 74 2
a 74 59 2
a 59 60 9
a 60 59 9
a 60 75 4
a 75 60 4
a 61 76 1
a 76 61 1
a 61 62 7
a 62 61 7
a 62 77 2
a 77 62 2
a 62 63 7
a 63 62 7
a 63 78 6
a 78 63 6
a 63 64 9
a 64 63 9
a 64 79 4
a 79 64 4
a 64 65 7
a 65 64 7
a 65 80 8
a 80 65 8
a 65 66 2
a 66 65 2
a 66 81 7
a 81 66 7
a 66 67 10
a 67 66 10
a 67 82 2
a 82 67 2
a 67 68 3
a 68 67 3
a 68 83 1
a 83 68 1
a 68 69 9
a 69 68 9
a 69 84 9
a 84 69 9
a 69 70 1
a 70 69 1
a 70 85 3
a 85 70 3
a 70 71 10
a 71 70 10
a 71 86 6
a 86 71 6
a 71 72 8
a 72 71 8
a 72 87 8
a 87 72 8
a 72 73 5
a 73 72 5
a 73 88 4
a 88 73 4
a 73 74 1
a 74 73 1
a 74 89 9
a 89 74 9
a 74 75 3
a 75 74 3
a 75 90 7
a 90 75 7
a 76 91 5
a 91 76 5
a 76 77 1
a 77 76 1
a 77 92 10
a 92 77 10
a 77 78 10
a 78 77 10
a 78 93 1
a 93 78 1
a 78 79 5
a 79 78 5
a 79 94 1
a 94 79 1
a 79 80 4
a 80 79 4
a 80 95 6
a 95 80 6
a 80 81 3
a 81 80 3
a 81 96 6
a 96 81 6
a 81 82 6
a 82 81 6
a 82 97 1
a 97 82 1
a 82 83 6
a 83 82 6
a 83 98 7
a 98 83 7
a 83 84 9
a 84 83 9
a 84 99 8
a 99 84 8
a 84 85 6
a 85 84 6
a 85 100 3
a 100 85 3
a 85 86 7
a 86 85 7
a 86 101 7
a 101 86 7
a 86 87 9
a 87 86 9
a 87 102 8
a 102 87 8
a 87 88 3
a 88 87 3
a 88 103 9
a 103 88 9
a 88 89 1
a 89 88 1
a 89 104 2
a 104 89 2
a 89 90 10
a 90 89 10
a 90 105 5
a 105 90 5
a 91 106 9
a 106 91 9
a 91 92 3
a 92 91 3
a 92 107 6
a 107 92 6
a 92 93 7
a 93 92 7
a 93 108 10
a 108 93 10
a 93 94 9
a 94 93 9
a 94 109 3
a 109 94 3
a 94 95 4
a 95 94 4
a 95 110 2
a 110 95 2
a 95 96 7
a 96 95 7
a 96 111 8
a 111 96 8
a 96 97 4
a 97 96 4
a 97 112 3
a 112 97 3
a 97 98 4
a 98 97 4
a 98 113 1
a 113 98 1
a 98 99 2
a 99 98 2
a 99 114 3
a 114 99 3
a 99 100 10
a 100 99 10
a 100 115 8
a 115 100 8
a 100 101 6
a 101 100 6
a 101 116 3
a 116 101 3
a 101 102 1
a 102 101 1
a 102 117 4
a 117 102 4
a 102 103 1
a 103 102 1
a 103 118 3
a 118 103 3
a 103 104 9
a 104 103 9
a 104 119 4
a 119 104 4
a 104 105 8
a 105 104 8
a 105 120 10
a 120 105 10
a 106 121 5
a 121 106 5
a 106 107 7
a 107 106 7
a 107 122 4
a 122 107 4
a 107 108 10
a 108 107 10
a 108 123 3
a 123 108 3
a 108 109 2
a 109 108 2
a 109 124 3
a 124 109 3
a 109 110 3
a 110 109 3
a 110 125 2
a 125 110 2
a 110 111 9
a 111 110 9
a 111 126 1
a 126 111 1
a 111 112 9
a 112 111 9
a 112 127 7
a 127 112 7
a 112 113 2
a 113 112 2
a 113 128 10
a 128 113 10
a 113 114 10
a 114 113 10
a 114 129 8
a 129 114 8
a 114 115 4
a 115 114 4
a 115 130 1
a 130 115 1
a 115 116 10
a 116 115 10
a 116 131 7
a 131 116 7
a 116 117 3
a 117 116 3
a 117 132 2
a 132 117 2
a 117 118 10
a 118 117 10
a 118 133 3
a 133 118 3
a 118 119 5
a 119 118 5
a 119 134 10
a 134 119 10
a 119 120 5
a 120 119 5
a 120 135 6
a 135 120 6
a 121 136 4
a 136 121 4
a 121 122 9
a 122 121 9
a 122 137 7
a 137 122 7
a 122 123 3
a 123 122 3
a 123 138 7
a 138 123 7
a 123 124 8
a 124 123 8
a 124 139 10
a 139 124 10
a 124 125 6
a 125 124 6
a 125 140 2
a 140 125 2
a 125 126 1
a 126 125 1
a 126 141 1
a 141 126 1
a 126 127 3
a 127 126 3
a 127 142 7
a 142 127 7
a 127 128 9
a 128 127 9
a 128 143 2
a 143 128 2
a 128 129 10
a 129 128 10
a 129 144 7
a 144 129 7
a 129 130 4
a 130 129 4
a 130 145 1
a 145 130 1
a 130 131 3
a 131 130 3
a 131 146 1
a 146 131 1
a 131 132 1
a 132 131 1
a 132 147 8
a 147 132 8
a 132 133 3
a 133 132 3
a 133 148 2
a 148 133 2
a 133 134 8
a 134 133 8
a 134 149 9
a 149 134 9
a 134 135 9
a 135 134 9
a 135 150 2
a 150 135 2
a 136 151 5
a 151 136 5
a 136 137 8
a 137 136 8
a 137 152 7
a 152 137 7
a 137 138 5
a 138 137 5
a 138 153 6
a 153 138 6
a 138 139 9
a 139 138 9
a 139 154 5
a 154 139 5
a 139 140 8
a 140 139 8
a 140 155 1
a 155 140 1
a 140 141 1
a 141 140 1
a 141 156 1
a 156 141 1
a 141 142 8
a 142 141 8
a 142 157 6
a 157 142 6
a 142 143 10
a 143 142 10
a 143 158 5
a 158 143 5
a 143 144 2
a 144 143 2
a 144 159 6
a 159 144 6
a 144 145 5
a 145 144 5
a 145 160 10
a 160 145 10
a 145 146 9
a 146 145 9
a 146 161 7
a 161 146 7
a 146 147 5
a 147 146 5
a 147 162 10
a 162 147 10
a 147 148 5
a 148 147 5
a 148 163 7
a 163 148 7
a 148 149 3
a 149 148 3
a 149 164 3
a 164 149 3
a 149 150 3
a 150 149 3
a 150 165 3
a 165 150 3
a 151 166 3
a 166 151 3
a 151 152 6
a 152 151 6
a 152 167 2
a 167 152 2
a 152 153 5
a 153 152 5
a 153 168 2
a 168 153 2
a 153 154 10
a 154 153 10
a 154 169 7
a 169 154 7
a 154 155 6
a 155 154 6
a 155 170 5
a 170 155 5
a 155 156 7
a 156 155 7
a 156 171 9
a 171 156 9
a 156 157 6
a 157 156 6
a 157 172 3
a 172 157 3
a 157 158 7
a 158 157 7
a 158 173 3
a 173 158 3
a 158 159 5
a 159 158 5
a 159 174 4
a 174 159 4
a 159 160 3
a 160 159 3
a 160 175 2
a 175 160 2
a 160 161 4
a 161 160 4
a 161 176 10
a 176 161 10
a 161 162 7
a 162 161 7
a 162 177 7
a 177 162 7
a 162 163 4
a 163 162 4
a 163 178 10
a 178 163 10
a 163 164 1
a 164 163 1
a 164 179 4
a 179 164 4
a 164 165 4
a 165 164 4
a 165 180 2
a 180 165 2
a 166 181 1
a 181 166 1
a 166 167 9
a 167 166 9
a 167 182 3
a 182 167 3
a 167 168 9
a 168 167 9
a 168 183 1
a 183 168 1
a 168 169 1
a 169 168 1
a 169 184 1
a 184 169 1
a 169 170 8
a 170 169 8
a 170 185 10
a 185 170 10
a 170 171 6
a 171 170 6
a 171 186 7
a 186 171 7
a 171 172 10
a 172 171 10
a 172 187 5
a 187 172 5
a 172 173 4
a 173 172 4
a 173 188 1
a 188 173 1
a 173 174 1
a 174 173 1
a 174 189 10
a 189 174 10
a 174 175 4
a 175 174 4
a 175 190 5
a 190 175 5
a 175 176 4
a 176 175 4
a 176 191 7
a 191 176 7
a 176 177 6
a 177 176 6
a 177 192 2
a 192 177 2
a 177 178 3
a 178 177 3
a 178 193 1
a 193 178 1
a 178 179 5
a 179 178 5
a 179 194 3
a 194 179 3
a 179 180 3
a 180 179 3
a 180 195 7
a 195 180 7
a 181 196 6
a 196 181 6
a 181 182 1
a 182 181 1
a 182 197 9
a 197 182 9
a 182 183 3
a 183 182 3
a 183 198 4
a 198 183 4
a 183 184 8
a 184 183 8
a 184 199 1
a 199 184 1
a 184 185 9
a 185 184 9
a 185 200 1
a 200 185 1
a 185 186 4
a 186 185 4
a 186 201 1
a 201 186 1
a 186 187 8
a 187 186 8
a 187 202 6
a 202 187 6
a 187 188 2
a 188 187 2
a 188 203 3
a 203 188 3
a 188 189 4
a 189 188 4
a 189 204 8
a 204 189 8
a 189 190 6
a 190 189 6
a 190 205 10
a 205 190 10
a 190 191 9
a 191 190 9
a 191 206 10
a 206 191 10
a 191 192 2
a 192 191 2
a 192 207 1
a 207 192 1
a 192 193 7
a 193 192 7
a 193 208 6
a 208 193 6
a 193 194 2
a 194 193 2
a 194 209 8
a 209 194 8
a 194 195 6
a 195 194 6
a 195 210 4
a 210 195 4
a 196 211 7
a 211 196 7
a 196 197 2
a 197 196 2
a 197 212 8
a 212 197 8
a 197 198 4
a 198 197 4
a 198 213 6
a 213 198 6
a 198 199 7
a 199 198 7
a 199 214 8
a 214 199 8
a 199 200 2
a 200 199 2
a 200 215 3
a 215 200 3
a 200 201 10
a 201 200 10
a 201 216 6
a 216 201 6
a 201 202 5
a 202 201 5
a 202 217 7
a 217 202 7
a 202 203 8
a 203 202 8
a 203 218 9
a 218 203 9
a 203 204 1
a 204 203 1
a 204 219 10
a 219 204 10
a 204 205 10
a 205 204 10
a 205 220 2
a 220 205 2
a 205 206 2
a 206 205 2
a 206 221 3
a 221 206 3
a 206 207 1
a 207 206 1
a 207 222 8
a 222 207 8
a 207 208 8
a 208 207 8
a 208 223 4
a 223 208 4
a 208 209 2
a 209 208 2
a 209 224 4
a 224 209 4
a 209 210 10
a 210 209 10
a 210 225 10
a 225 210 10
a 211 212 3
a 212 211 3
a 212 213 4
a 213 212 4
a 213 214 2
a 214 213 2
a 214 215 2
a 215 214 2
a 215 216 6
a 216 215 6
a 216 217 6
a 217 216 6
a 217 218 4
a 218 217 4
a 218 219 9
a 219 218 9
a 219 220 5
a 220 219 5
a 220 221 2
a 221 220 2
a 221 222 2
a 222 221 2
a 222 223 1
a 223 222 1
a 223 224 5
a 224 223 5
a 224 225 5
a 225 224 5
